instances/shortest_path/discrete/shortest_path_6_8.kp
65751
104

[1.2452142099925951 2.3946000952077737 0.7489930438310689 3.642618081581624 2.049396546613796 3.847146409593055 0.7803960270034289 0.8597942897479631 1.802714382631491 0.8619711176562423 1.7919829561985663 2.9313831810832154 1.7528161553652397 0.4391212442705227 1.7606941068776114 2.7231154788108825 1.162683653523494 3.984801354717965 3.025116806443598 4.3122300606233575 1.420591798313749 1.5239542461226954 3.1464214177084777 1.8987210697869448]

[56 37 71 16 69 22 66 68 46 23 84 36 37 37 73 57 98 17 10 63 10 80 17 55]
